peakDumbCharging = 29600; 
Machine = anon_enum(16); 
machineSpeed = [3700,3700,3700,3700,3700,3700,3700,3700,3700,3700,3700,3700,3700,3700,3700,3700]; 
machineLoad = [3700,3700,3700,3700,3700,3700,3700,3700,3700,3700,3700,3700,3700,3700,3700,3700]; 
Car = anon_enum(40); 
demandCar = [9040,9080,6920,2720,10600,12920,9320,9120,20080,1640,5520,120,19840,7440,11960,2640,3960,19360,7320,3440,16400,7920,8640,8440,5000,1960,21240,6360,7040,16640,19760,6880,12480,4240,8760,3360,12200,15840,31680,33040]; 
arrivalCar = [76,74,74,73,72,71,71,68,65,65,64,64,64,63,63,61,60,59,57,57,56,55,54,51,48,48,47,47,46,45,45,43,42,42,38,38,33,32,30,29]; 
departureCar = [81,78,78,76,77,81,77,72,72,67,67,65,73,67,67,63,62,67,61,60,63,59,58,56,51,50,60,51,50,53,52,48,53,45,43,41,41,38,59,47]; 
